db/inputs/1301248486121172856232522774524203.smt2
(set-logic QF_FP)
(declare-const x0 (_ FloatingPoint 8 24))
(declare-const x1 (_ FloatingPoint 8 24))
(declare-const x2 (_ FloatingPoint 8 24))
(declare-const x3 (_ FloatingPoint 8 24))
(declare-const x4 (_ FloatingPoint 8 24))
(declare-const x5 (_ FloatingPoint 8 24))
(declare-const x6 (_ FloatingPoint 8 24))
(declare-const x7 (_ FloatingPoint 8 24))
(declare-const x8 (_ FloatingPoint 8 24))
(declare-const x9 (_ FloatingPoint 8 24))
(declare-const x10 (_ FloatingPoint 8 24))
(declare-const x11 (_ FloatingPoint 8 24))
(declare-const x12 (_ FloatingPoint 8 24))
(declare-const x13 (_ FloatingPoint 8 24))
(declare-const x14 (_ FloatingPoint 8 24))
(declare-const x15 (_ FloatingPoint 8 24))
(declare-const x16 (_ FloatingPoint 8 24))
(declare-const x17 (_ FloatingPoint 8 24))
(declare-const x18 (_ FloatingPoint 8 24))
(declare-const x19 (_ FloatingPoint 8 24))
(declare-const x20 (_ FloatingPoint 8 24))
(declare-const x21 (_ FloatingPoint 8 24))
(assert (fp.gt (fp.neg x11) (fp.div RNE x4 x8)))
(assert (fp.lt (fp.sub RNE x17 x20) (fp.sub RNE x21 x21)))
(assert (fp.gt (fp.div RNE x2 x8) (fp.mul RNE x0 x11)))
(assert (fp.eq (fp.mul RNE x13 x12) (fp.sub RNE x1 x15)))
(assert (fp.geq (fp.neg x11) (fp.add RNE x5 x11)))
(assert (fp.lt (fp.add RNE x4 x19) (fp.sub RNE x8 x21)))
(assert (fp.eq (fp.sub RNE x13 x3) (fp.neg x9)))
(assert (fp.lt (fp.add RNE x13 x5) (fp.add RNE x0 x16)))
(assert (fp.eq (fp.neg x13) (fp.neg x9)))
(assert (fp.gt (fp.sub RNE x16 x2) (fp.neg x8)))
(assert (fp.gt (fp.sub RNE x21 x4) (fp.add RNE x11 x5)))
(check-sat)
