db/data/1301248486121172856232522774524203.z3.out
sat
-------------------
24.528904378
